\ Model SecondStageSolverRobustPlantingPlan
\ LP format - for model browsing. Use MPS format to capture full model detail.
Maximize
  800.9221179999757 Fjmk[0,0,0] + 800.9221179999757 Fjmk[0,0,1]
   + 1029.877203836192 Fjmk[0,1,0] + 1029.877203836192 Fjmk[0,1,1]
   + 1004.98984142376 Fjmk[0,2,0] + 1004.98984142376 Fjmk[0,2,1]
   + 1040.81481192966 Fjmk[0,3,0] + 1040.81481192966 Fjmk[0,3,1]
   + 957.9135179577712 Fjmk[0,4,0] + 957.9135179577712 Fjmk[0,4,1]
   + 1008.973072690131 Fjmk[1,0,0] + 1008.973072690131 Fjmk[1,0,1]
   + 1022.225990173871 Fjmk[1,1,0] + 1022.225990173871 Fjmk[1,1,1]
   + 906.4469544529645 Fjmk[1,2,0] + 906.4469544529645 Fjmk[1,2,1]
   + 805.928432397842 Fjmk[1,3,0] + 805.928432397842 Fjmk[1,3,1]
   + 1174.025346093793 Fjmk[1,4,0] + 1174.025346093793 Fjmk[1,4,1]
   + 1011.485387954452 Fjmk[2,0,0] + 1011.485387954452 Fjmk[2,0,1]
   + 1043.518296756137 Fjmk[2,1,0] + 1043.518296756137 Fjmk[2,1,1]
   + 1028.738765186762 Fjmk[2,2,0] + 1028.738765186762 Fjmk[2,2,1]
   + 1144.483571001809 Fjmk[2,3,0] + 1144.483571001809 Fjmk[2,3,1]
   + 963.5913224218521 Fjmk[2,4,0] + 963.5913224218521 Fjmk[2,4,1]
   + 941.4184817580305 Fjmk[3,0,0] + 941.4184817580305 Fjmk[3,0,1]
   + 995.4251900900377 Fjmk[3,1,0] + 995.4251900900377 Fjmk[3,1,1]
   + 1036.042726711402 Fjmk[3,2,0] + 1036.042726711402 Fjmk[3,2,1]
   + 1019.286086320953 Fjmk[3,3,0] + 1019.286086320953 Fjmk[3,3,1]
   + 1134.395441958493 Fjmk[3,4,0] + 1134.395441958493 Fjmk[3,4,1]
   - 4435.691713482341 Hij[0,0] - 4405.076156048814 Hij[0,1]
   - 4327.994370520418 Hij[0,2] - 4460.716233863491 Hij[0,3]
   - 4397.015318217912 Hij[1,0] - 4371.067578704249 Hij[1,1]
   - 4375.192610823743 Hij[1,2] - 4342.101158086193 Hij[1,3]
   - 4411.343901454208 Hij[2,0] - 4333.710481442361 Hij[2,1]
   - 4361.97112672757 Hij[2,2] - 4308.20717438958 Hij[2,3]
   - 4366.396323412295 Hij[3,0] - 4351.454593390125 Hij[3,1]
   - 4379.604675129448 Hij[3,2] - 4281.987893980652 Hij[3,3]
   - 4325.34865351121 Hij[4,0] - 4339.466496130447 Hij[4,1]
   - 4415.876020841994 Hij[4,2] - 4335.512003037303 Hij[4,3]
   - 4352.060369552128 Hij[5,0] - 4413.629209464006 Hij[5,1]
   - 4416.773767116684 Hij[5,2] - 4374.640141654276 Hij[5,3]
   - 4356.493031489486 Hij[6,0] - 4303.094906887635 Hij[6,1]
   - 4410.703043758313 Hij[6,2] - 4427.75555598199 Hij[6,3]
   - 4325.225999020753 Hij[7,0] - 4357.62931417111 Hij[7,1]
   - 4329.881009034531 Hij[7,2] - 4302.76767409681 Hij[7,3]
   - 4377.828515779693 Hij[8,0] - 4333.214944864725 Hij[8,1]
   - 4316.254337628227 Hij[8,2] - 4393.313443666147 Hij[8,3]
   - 4265.905592095791 Hij[9,0] - 4360.811082293191 Hij[9,1]
   - 4348.640827909058 Hij[9,2] - 4343.9328826317 Hij[9,3]
   - 4341.70646490425 Hij[10,0] - 4369.515732445839 Hij[10,1]
   - 4306.829304932851 Hij[10,2] - 4340.171624977423 Hij[10,3]
   - 4278.026171656718 Hij[11,0] - 4322.17206525952 Hij[11,1]
   - 4329.145238647206 Hij[11,2] - 4363.544312392541 Hij[11,3]
   - 4316.243109688826 Hij[12,0] - 4336.629630748383 Hij[12,1]
   - 4334.05620856854 Hij[12,2] - 4398.70747035522 Hij[12,3]
   - 4330.08037471243 Hij[13,0] - 4368.50461283343 Hij[13,1]
   - 4348.783253519065 Hij[13,2] - 4414.205557712979 Hij[13,3]
   - 4378.134934225537 Hij[14,0] - 4334.151457430858 Hij[14,1]
   - 4320.473183558717 Hij[14,2] - 4334.617188243082 Hij[14,3]
   - 4317.777485026219 Hij[15,0] - 4320.636550327035 Hij[15,1]
   - 4344.223884858779 Hij[15,2] - 4376.961346254542 Hij[15,3]
   - 4427.915828062632 Hij[16,0] - 4357.438519060212 Hij[16,1]
   - 4274.93329620595 Hij[16,2] - 4356.988646505143 Hij[16,3]
   - 4312.634138552593 Hij[17,0] - 4341.020689008842 Hij[17,1]
   - 4371.246551334189 Hij[17,2] - 4313.532602999353 Hij[17,3]
   - 4366.580622882939 Hij[18,0] - 4306.895707226146 Hij[18,1]
   - 4394.277782162701 Hij[18,2] - 4364.85905172357 Hij[18,3]
   - 4295.586449601507 Hij[19,0] - 4390.24840770114 Hij[19,1]
   - 4310.641802119664 Hij[19,2] - 4430.200581556216 Hij[19,3]
   - 4416.359564881822 Hij[20,0] - 4287.119202199652 Hij[20,1]
   - 4366.406486583209 Hij[20,2] - 4346.930760530512 Hij[20,3]
   - 4376.280947259563 Hij[21,0] - 4370.538481391972 Hij[21,1]
   - 4385.66640224776 Hij[21,2] - 4389.477103344148 Hij[21,3]
   - 4324.516704952318 Hij[22,0] - 4390.783809637299 Hij[22,1]
   - 4338.92454800735 Hij[22,2] - 4392.351543984229 Hij[22,3]
   - 4359.016800600913 Hij[23,0] - 4397.834425811123 Hij[23,1]
   - 4390.885518664713 Hij[23,2] - 4376.377921532267 Hij[23,3]
   + 918.1779038671308 Sjk[0,0] + 918.1779038671308 Sjk[0,1]
   + 1008.270993579791 Sjk[1,0] + 1008.270993579791 Sjk[1,1]
   + 870.8941544653023 Sjk[2,0] + 870.8941544653023 Sjk[2,1]
   + 933.8895768184151 Sjk[3,0] + 933.8895768184151 Sjk[3,1]
   - 800.9221179999757 Pmj[0,0] - 1008.973072690131 Pmj[0,1]
   - 1011.485387954452 Pmj[0,2] - 941.4184817580305 Pmj[0,3]
   - 1029.877203836192 Pmj[1,0] - 1022.225990173871 Pmj[1,1]
   - 1043.518296756137 Pmj[1,2] - 995.4251900900377 Pmj[1,3]
   - 1004.98984142376 Pmj[2,0] - 906.4469544529645 Pmj[2,1]
   - 1028.738765186762 Pmj[2,2] - 1036.042726711402 Pmj[2,3]
   - 1040.81481192966 Pmj[3,0] - 805.928432397842 Pmj[3,1]
   - 1144.483571001809 Pmj[3,2] - 1019.286086320953 Pmj[3,3]
   - 957.9135179577712 Pmj[4,0] - 1174.025346093793 Pmj[4,1]
   - 963.5913224218521 Pmj[4,2] - 1134.395441958493 Pmj[4,3]
   + 1.2689053491528358e+07 Constant
Subject To
 Marketing_Constraint_-__j__0,_k__0: - Fjmk[0,0,0] - Fjmk[0,1,0]
   - Fjmk[0,2,0] - Fjmk[0,3,0] - Fjmk[0,4,0] + 4.097192723435078 Hij[0,0]
   + 4.097192723435078 Hij[1,0] + 10.4484218607871 Hij[2,0]
   + 10.4484218607871 Hij[3,0] + 17.7633039254003 Hij[4,0]
   + 17.7633039254003 Hij[5,0] + 15.09964713093868 Hij[6,0]
   + 15.09964713093868 Hij[7,0] + 3.244654610186577 Hij[8,0]
   + 3.244654610186577 Hij[9,0] + 9.35943912725519 Hij[10,0]
   + 9.35943912725519 Hij[11,0] + 17.99864932757988 Hij[12,0]
   + 17.99864932757988 Hij[13,0] + 17.30613198144684 Hij[14,0]
   + 17.30613198144684 Hij[15,0] + 3.602289220869126 Hij[16,0]
   + 3.602289220869126 Hij[17,0] + 9.843451659246096 Hij[18,0]
   + 9.843451659246096 Hij[19,0] + 17.93184548806387 Hij[20,0]
   + 17.93184548806387 Hij[21,0] + 16.33324842438572 Hij[22,0]
   + 16.33324842438572 Hij[23,0] - Sjk[0,0] - Ojk[0,0] = 0
 Marketing_Constraint_-__j__0,_k__1: - Fjmk[0,0,1] - Fjmk[0,1,1]
   - Fjmk[0,2,1] - Fjmk[0,3,1] - Fjmk[0,4,1] + 20.21622551379017 Hij[0,0]
   + 20.21622551379017 Hij[1,0] + 25.77711946434807 Hij[2,0]
   + 25.77711946434807 Hij[3,0] + 21.91176875643845 Hij[4,0]
   + 21.91176875643845 Hij[5,0] + 9.313019065215693 Hij[6,0]
   + 9.313019065215693 Hij[7,0] + 18.34912534708234 Hij[8,0]
   + 18.34912534708234 Hij[9,0] + 26.4646845900367 Hij[10,0]
   + 26.4646845900367 Hij[11,0] + 25.4464274527938 Hij[12,0]
   + 25.4464274527938 Hij[13,0] + 12.23367442576802 Hij[14,0]
   + 12.23367442576802 Hij[15,0] + 19.2264024474229 Hij[16,0]
   + 19.2264024474229 Hij[17,0] + 26.26859636589046 Hij[18,0]
   + 26.26859636589046 Hij[19,0] + 23.92679049624859 Hij[20,0]
   + 23.92679049624859 Hij[21,0] + 10.89687654942132 Hij[22,0]
   + 10.89687654942132 Hij[23,0] - Sjk[0,1] - Ojk[0,1] = 0
 Marketing_Constraint_-__j__1,_k__0: - Fjmk[1,0,0] - Fjmk[1,1,0]
   - Fjmk[1,2,0] - Fjmk[1,3,0] - Fjmk[1,4,0] + 1.204989741750202 Hij[0,1]
   + 1.204989741750202 Hij[1,1] + 4.097192723435078 Hij[2,1]
   + 4.097192723435078 Hij[3,1] + 10.4484218607871 Hij[4,1]
   + 10.4484218607871 Hij[5,1] + 17.7633039254003 Hij[6,1]
   + 17.7633039254003 Hij[7,1] + 0.8436229508198465 Hij[8,1]
   + 0.8436229508198465 Hij[9,1] + 3.244654610186577 Hij[10,1]
   + 3.244654610186577 Hij[11,1] + 9.35943912725519 Hij[12,1]
   + 9.35943912725519 Hij[13,1] + 17.99864932757988 Hij[14,1]
   + 17.99864932757988 Hij[15,1] + 0.9887147374722638 Hij[16,1]
   + 0.9887147374722638 Hij[17,1] + 3.602289220869126 Hij[18,1]
   + 3.602289220869126 Hij[19,1] + 9.843451659246096 Hij[20,1]
   + 9.843451659246096 Hij[21,1] + 17.93184548806387 Hij[22,1]
   + 17.93184548806387 Hij[23,1] - Sjk[1,0] - Ojk[1,0] = 0
 Marketing_Constraint_-__j__1,_k__1: - Fjmk[1,0,1] - Fjmk[1,1,1]
   - Fjmk[1,2,1] - Fjmk[1,3,1] - Fjmk[1,4,1] + 11.89123675910573 Hij[0,1]
   + 11.89123675910573 Hij[1,1] + 20.21622551379017 Hij[2,1]
   + 20.21622551379017 Hij[3,1] + 25.77711946434807 Hij[4,1]
   + 25.77711946434807 Hij[5,1] + 21.91176875643845 Hij[6,1]
   + 21.91176875643845 Hij[7,1] + 9.541689412284608 Hij[8,1]
   + 9.541689412284608 Hij[9,1] + 18.34912534708234 Hij[10,1]
   + 18.34912534708234 Hij[11,1] + 26.4646845900367 Hij[12,1]
   + 26.4646845900367 Hij[13,1] + 25.4464274527938 Hij[14,1]
   + 25.4464274527938 Hij[15,1] + 10.55408174236127 Hij[16,1]
   + 10.55408174236127 Hij[17,1] + 19.2264024474229 Hij[18,1]
   + 19.2264024474229 Hij[19,1] + 26.26859636589046 Hij[20,1]
   + 26.26859636589046 Hij[21,1] + 23.92679049624859 Hij[22,1]
   + 23.92679049624859 Hij[23,1] - Sjk[1,1] - Ojk[1,1] = 0
 Marketing_Constraint_-__j__2,_k__0: - Fjmk[2,0,0] - Fjmk[2,1,0]
   - Fjmk[2,2,0] - Fjmk[2,3,0] - Fjmk[2,4,0] + 0.2835112479660686 Hij[0,2]
   + 0.2835112479660686 Hij[1,2] + 1.204989741750202 Hij[2,2]
   + 1.204989741750202 Hij[3,2] + 4.097192723435078 Hij[4,2]
   + 4.097192723435078 Hij[5,2] + 10.4484218607871 Hij[6,2]
   + 10.4484218607871 Hij[7,2] + 0.1754762262622611 Hij[8,2]
   + 0.1754762262622611 Hij[9,2] + 0.8436229508198465 Hij[10,2]
   + 0.8436229508198465 Hij[11,2] + 3.244654610186577 Hij[12,2]
   + 3.244654610186577 Hij[13,2] + 9.35943912725519 Hij[14,2]
   + 9.35943912725519 Hij[15,2] + 0.2170968008746375 Hij[16,2]
   + 0.2170968008746375 Hij[17,2] + 0.9887147374722638 Hij[18,2]
   + 0.9887147374722638 Hij[19,2] + 3.602289220869126 Hij[20,2]
   + 3.602289220869126 Hij[21,2] + 9.843451659246096 Hij[22,2]
   + 9.843451659246096 Hij[23,2] - Sjk[2,0] - Ojk[2,0] = 0
 Marketing_Constraint_-__j__2,_k__1: - Fjmk[2,0,1] - Fjmk[2,1,1]
   - Fjmk[2,2,1] - Fjmk[2,3,1] - Fjmk[2,4,1] + 5.595565267696589 Hij[0,2]
   + 5.595565267696589 Hij[1,2] + 11.89123675910573 Hij[2,2]
   + 11.89123675910573 Hij[3,2] + 20.21622551379017 Hij[4,2]
   + 20.21622551379017 Hij[5,2] + 25.77711946434807 Hij[6,2]
   + 25.77711946434807 Hij[7,2] + 3.969402796846919 Hij[8,2]
   + 3.969402796846919 Hij[9,2] + 9.541689412284608 Hij[10,2]
   + 9.541689412284608 Hij[11,2] + 18.34912534708234 Hij[12,2]
   + 18.34912534708234 Hij[13,2] + 26.4646845900367 Hij[14,2]
   + 26.4646845900367 Hij[15,2] + 4.634819924488743 Hij[16,2]
   + 4.634819924488743 Hij[17,2] + 10.55408174236127 Hij[18,2]
   + 10.55408174236127 Hij[19,2] + 19.2264024474229 Hij[20,2]
   + 19.2264024474229 Hij[21,2] + 26.26859636589046 Hij[22,2]
   + 26.26859636589046 Hij[23,2] - Sjk[2,1] - Ojk[2,1] = 0
 Marketing_Constraint_-__j__3,_k__0: - Fjmk[3,0,0] - Fjmk[3,1,0]
   - Fjmk[3,2,0] - Fjmk[3,3,0] - Fjmk[3,4,0] + 0.0555873526957242 Hij[0,3]
   + 0.0555873526957242 Hij[1,3] + 0.2835112479660686 Hij[2,3]
   + 0.2835112479660686 Hij[3,3] + 1.204989741750202 Hij[4,3]
   + 1.204989741750202 Hij[5,3] + 4.097192723435078 Hij[6,3]
   + 4.097192723435078 Hij[7,3] + 0.0304163389909755 Hij[8,3]
   + 0.0304163389909755 Hij[9,3] + 0.1754762262622611 Hij[10,3]
   + 0.1754762262622611 Hij[11,3] + 0.8436229508198465 Hij[12,3]
   + 0.8436229508198465 Hij[13,3] + 3.244654610186577 Hij[14,3]
   + 3.244654610186577 Hij[15,3] + 0.0397241482331704 Hij[16,3]
   + 0.0397241482331704 Hij[17,3] + 0.2170968008746375 Hij[18,3]
   + 0.2170968008746375 Hij[19,3] + 0.9887147374722638 Hij[20,3]
   + 0.9887147374722638 Hij[21,3] + 3.602289220869126 Hij[22,3]
   + 3.602289220869126 Hij[23,3] - Sjk[3,0] - Ojk[3,0] = 0
 Marketing_Constraint_-__j__3,_k__1: - Fjmk[3,0,1] - Fjmk[3,1,1]
   - Fjmk[3,2,1] - Fjmk[3,3,1] - Fjmk[3,4,1] + 2.194217423815375 Hij[0,3]
   + 2.194217423815375 Hij[1,3] + 5.595565267696589 Hij[2,3]
   + 5.595565267696589 Hij[3,3] + 11.89123675910573 Hij[4,3]
   + 11.89123675910573 Hij[5,3] + 20.21622551379017 Hij[6,3]
   + 20.21622551379017 Hij[7,3] + 1.376080437018016 Hij[8,3]
   + 1.376080437018016 Hij[9,3] + 3.969402796846919 Hij[10,3]
   + 3.969402796846919 Hij[11,3] + 9.541689412284608 Hij[12,3]
   + 9.541689412284608 Hij[13,3] + 18.34912534708234 Hij[14,3]
   + 18.34912534708234 Hij[15,3] + 1.696149118482489 Hij[16,3]
   + 1.696149118482489 Hij[17,3] + 4.634819924488743 Hij[18,3]
   + 4.634819924488743 Hij[19,3] + 10.55408174236127 Hij[20,3]
   + 10.55408174236127 Hij[21,3] + 19.2264024474229 Hij[22,3]
   + 19.2264024474229 Hij[23,3] - Sjk[3,1] - Ojk[3,1] = 0
 Vu_cumprà_Constraint_-_j__0,_m_0,_k__0: Fjmk[0,0,0] = 0
 Vu_cumprà_Constraint_-_j__0,_m_1,_k__0: Fjmk[0,1,0] = 0
 Vu_cumprà_Constraint_-_j__0,_m_2,_k__1: Fjmk[0,2,1] = 0
 Vu_cumprà_Constraint_-_j__0,_m_3,_k__0: Fjmk[0,3,0] = 0
 Vu_cumprà_Constraint_-_j__0,_m_4,_k__0: Fjmk[0,4,0] = 0
 Vu_cumprà_Constraint_-_j__1,_m_0,_k__0: Fjmk[1,0,0] = 0
 Vu_cumprà_Constraint_-_j__1,_m_1,_k__0: Fjmk[1,1,0] = 0
 Vu_cumprà_Constraint_-_j__1,_m_2,_k__1: Fjmk[1,2,1] = 0
 Vu_cumprà_Constraint_-_j__1,_m_3,_k__0: Fjmk[1,3,0] = 0
 Vu_cumprà_Constraint_-_j__1,_m_4,_k__0: Fjmk[1,4,0] = 0
 Vu_cumprà_Constraint_-_j__2,_m_0,_k__0: Fjmk[2,0,0] = 0
 Vu_cumprà_Constraint_-_j__2,_m_1,_k__0: Fjmk[2,1,0] = 0
 Vu_cumprà_Constraint_-_j__2,_m_2,_k__1: Fjmk[2,2,1] = 0
 Vu_cumprà_Constraint_-_j__2,_m_3,_k__0: Fjmk[2,3,0] = 0
 Vu_cumprà_Constraint_-_j__2,_m_4,_k__0: Fjmk[2,4,0] = 0
 Vu_cumprà_Constraint_-_j__3,_m_0,_k__0: Fjmk[3,0,0] = 0
 Vu_cumprà_Constraint_-_j__3,_m_1,_k__0: Fjmk[3,1,0] = 0
 Vu_cumprà_Constraint_-_j__3,_m_2,_k__1: Fjmk[3,2,1] = 0
 Vu_cumprà_Constraint_-_j__3,_m_3,_k__0: Fjmk[3,3,0] = 0
 Vu_cumprà_Constraint_-_j__3,_m_4,_k__0: Fjmk[3,4,0] = 0
 Demand_Constraint_-_j__0,_m__0: Fjmk[0,0,1] + Pmj[0,0]
   = 100.0616294249995
 Demand_Constraint_-_j__0,_m__1: Fjmk[0,1,1] + Pmj[1,0]
   = 101.8670717456721
 Demand_Constraint_-_j__0,_m__2: Fjmk[0,2,0] + Pmj[2,0]
   = 47.84610056722413
 Demand_Constraint_-_j__0,_m__3: Fjmk[0,3,1] + Pmj[3,0]
   = 38.99296191769563
 Demand_Constraint_-_j__0,_m__4: Fjmk[0,4,1] + Pmj[4,0]
   = 145.5243695025857
 Demand_Constraint_-_j__1,_m__0: Fjmk[1,0,1] + Pmj[0,1]
   = 65.34439501213851
 Demand_Constraint_-_j__1,_m__1: Fjmk[1,1,1] + Pmj[1,1]
   = 136.0785581684336
 Demand_Constraint_-_j__1,_m__2: Fjmk[1,2,0] + Pmj[2,1]
   = 62.54247488925872
 Demand_Constraint_-_j__1,_m__3: Fjmk[1,3,1] + Pmj[3,1]
   = 153.3479384468015
 Demand_Constraint_-_j__1,_m__4: Fjmk[1,4,1] + Pmj[4,1]
   = 132.1370989235073
 Demand_Constraint_-_j__2,_m__0: Fjmk[2,0,1] + Pmj[0,2]
   = 165.5337927484073
 Demand_Constraint_-_j__2,_m__1: Fjmk[2,1,1] + Pmj[1,2]
   = 55.30538545409652
 Demand_Constraint_-_j__2,_m__2: Fjmk[2,2,0] + Pmj[2,2]
   = 92.68049839223809
 Demand_Constraint_-_j__2,_m__3: Fjmk[2,3,1] + Pmj[3,2]
   = 165.2251361225803
 Demand_Constraint_-_j__2,_m__4: Fjmk[2,4,1] + Pmj[4,2]
   = 94.44198349488524
 Demand_Constraint_-_j__3,_m__0: Fjmk[3,0,1] + Pmj[0,3]
   = 91.56242433390312
 Demand_Constraint_-_j__3,_m__1: Fjmk[3,1,1] + Pmj[1,3]
   = 129.3201917800725
 Demand_Constraint_-_j__3,_m__2: Fjmk[3,2,0] + Pmj[2,3]
   = 121.1600296890529
 Demand_Constraint_-_j__3,_m__3: Fjmk[3,3,1] + Pmj[3,3] = 145.198227219448
 Demand_Constraint_-_j__3,_m__4: Fjmk[3,4,1] + Pmj[4,3]
   = 66.25778244054462
 _Sell_on_Open_Market_-_j__0: Sjk[0,0] + Sjk[0,1] <= 108.5730332895443
 _Sell_on_Open_Market_-_j__1: Sjk[1,0] + Sjk[1,1] <= 137.3626163600349
 _Sell_on_Open_Market_-_j__2: Sjk[2,0] + Sjk[2,1] <= 143.2966990530519
 _Sell_on_Open_Market_-_j__3: Sjk[3,0] + Sjk[3,1] <= 138.3746638657553
 Land_Use_Constraint_-_2_-__i__0: Hij[0,0] + Hij[0,1] + Hij[0,2] + Hij[0,3]
   + Ojk[0] = 0
 Land_Use_Constraint_-_2_-__i__1: Hij[1,0] + Hij[1,1] + Hij[1,2] + Hij[1,3]
   + Ojk[1] = 0
 Land_Use_Constraint_-_2_-__i__2: Hij[2,0] + Hij[2,1] + Hij[2,2] + Hij[2,3]
   + Ojk[2] = 4.57926576900483
 Land_Use_Constraint_-_2_-__i__3: Hij[3,0] + Hij[3,1] + Hij[3,2] + Hij[3,3]
   + Ojk[3] = 0
 Land_Use_Constraint_-_2_-__i__4: Hij[4,0] + Hij[4,1] + Hij[4,2] + Hij[4,3]
   + Ojk[4] = 0
 Land_Use_Constraint_-_2_-__i__5: Hij[5,0] + Hij[5,1] + Hij[5,2] + Hij[5,3]
   + Ojk[5] = 17.63645997210524
 Land_Use_Constraint_-_2_-__i__6: Hij[6,0] + Hij[6,1] + Hij[6,2] + Hij[6,3]
   + Ojk[6] = 0
 Land_Use_Constraint_-_2_-__i__7: Hij[7,0] + Hij[7,1] + Hij[7,2] + Hij[7,3]
   + Ojk[7] = 0
 Land_Use_Constraint_-_2_-__i__8: Hij[8,0] + Hij[8,1] + Hij[8,2] + Hij[8,3]
   + Ojk[8] = 0
 Land_Use_Constraint_-_2_-__i__9: Hij[9,0] + Hij[9,1] + Hij[9,2] + Hij[9,3]
   + Ojk[9] = 0
 Land_Use_Constraint_-_2_-__i__10: Hij[10,0] + Hij[10,1] + Hij[10,2]
   + Hij[10,3] + Ojk[10] = 0
 Land_Use_Constraint_-_2_-__i__11: Hij[11,0] + Hij[11,1] + Hij[11,2]
   + Hij[11,3] + Ojk[11] = 0
 Land_Use_Constraint_-_2_-__i__12: Hij[12,0] + Hij[12,1] + Hij[12,2]
   + Hij[12,3] + Ojk[12] = 0
 Land_Use_Constraint_-_2_-__i__13: Hij[13,0] + Hij[13,1] + Hij[13,2]
   + Hij[13,3] + Ojk[13] = 26.18687750674578
 Land_Use_Constraint_-_2_-__i__14: Hij[14,0] + Hij[14,1] + Hij[14,2]
   + Hij[14,3] + Ojk[14] = 0
 Land_Use_Constraint_-_2_-__i__15: Hij[15,0] + Hij[15,1] + Hij[15,2]
   + Hij[15,3] + Ojk[15] = 9.90235602070935
 Land_Use_Constraint_-_2_-__i__16: Hij[16,0] + Hij[16,1] + Hij[16,2]
   + Hij[16,3] + Ojk[16] = 0
 Land_Use_Constraint_-_2_-__i__17: Hij[17,0] + Hij[17,1] + Hij[17,2]
   + Hij[17,3] + Ojk[17] = 254.8942313284183
 Land_Use_Constraint_-_2_-__i__18: Hij[18,0] + Hij[18,1] + Hij[18,2]
   + Hij[18,3] + Ojk[18] = 0
 Land_Use_Constraint_-_2_-__i__19: Hij[19,0] + Hij[19,1] + Hij[19,2]
   + Hij[19,3] + Ojk[19] = 17.361869370991
 Land_Use_Constraint_-_2_-__i__20: Hij[20,0] + Hij[20,1] + Hij[20,2]
   + Hij[20,3] + Ojk[20] = 0
 Land_Use_Constraint_-_2_-__i__21: Hij[21,0] + Hij[21,1] + Hij[21,2]
   + Hij[21,3] + Ojk[21] = 122.5429591540318
 Land_Use_Constraint_-_2_-__i__22: Hij[22,0] + Hij[22,1] + Hij[22,2]
   + Hij[22,3] + Ojk[22] = 20.34990821803793
 Land_Use_Constraint_-_2_-__i__23: Hij[23,0] + Hij[23,1] + Hij[23,2]
   + Hij[23,3] + Ojk[23] = 0
 Disease_Constraint_-_j__0,_q__0: 24.31341823722525 Hij[0,0]
   + 36.22554132513518 Hij[2,0] + 36.22554132513518 Hij[3,0]
   + 24.41266619615437 Hij[6,0] + 24.41266619615437 Hij[7,0]
   + 21.59377995726892 Hij[9,0] + 35.8241237172919 Hij[10,0]
   + 43.44507678037368 Hij[12,0] + 43.44507678037368 Hij[13,0]
   + 29.53980640721486 Hij[14,0] + 29.53980640721486 Hij[15,0]
   + 22.82869166829203 Hij[16,0] + 36.11204802513656 Hij[18,0]
   + 27.23012497380704 Hij[23,0] <= 308.3436744028243
 Disease_Constraint_-_j__1,_q__0: 13.09622650085594 Hij[0,1]
   + 24.31341823722525 Hij[2,1] + 24.31341823722525 Hij[3,1]
   + 39.67507268183875 Hij[6,1] + 39.67507268183875 Hij[7,1]
   + 10.38531236310445 Hij[9,1] + 21.59377995726892 Hij[10,1]
   + 35.8241237172919 Hij[12,1] + 35.8241237172919 Hij[13,1]
   + 43.44507678037368 Hij[14,1] + 43.44507678037368 Hij[15,1]
   + 11.54279647983354 Hij[16,1] + 22.82869166829203 Hij[18,1]
   + 41.85863598431246 Hij[23,1] <= 390.1050985753154
 Disease_Constraint_-_j__2,_q__0: 5.879076515662658 Hij[0,2]
   + 13.09622650085594 Hij[2,2] + 13.09622650085594 Hij[3,2]
   + 36.22554132513518 Hij[6,2] + 36.22554132513518 Hij[7,2]
   + 4.14487902310918 Hij[9,2] + 10.38531236310445 Hij[10,2]
   + 21.59377995726892 Hij[12,2] + 21.59377995726892 Hij[13,2]
   + 35.8241237172919 Hij[14,2] + 35.8241237172919 Hij[15,2]
   + 4.85191672536338 Hij[16,2] + 11.54279647983354 Hij[18,2]
   + 36.11204802513656 Hij[23,2] <= 406.9576890053486
 Disease_Constraint_-_j__3,_q__0: 2.249804776511099 Hij[0,3]
   + 5.879076515662658 Hij[2,3] + 5.879076515662658 Hij[3,3]
   + 24.31341823722525 Hij[6,3] + 24.31341823722525 Hij[7,3]
   + 1.406496776008992 Hij[9,3] + 4.14487902310918 Hij[10,3]
   + 10.38531236310445 Hij[12,3] + 10.38531236310445 Hij[13,3]
   + 21.59377995726892 Hij[14,3] + 21.59377995726892 Hij[15,3]
   + 1.735873266715659 Hij[16,3] + 4.85191672536338 Hij[18,3]
   + 22.82869166829203 Hij[23,3] <= 392.9792786284031
Bounds
 Constant = 1
End
